82 8 46 17 
62 11 90 66 1 
40 53 
2 21 73 41 26 
33 81 3 54 24 80 
27 69 30 51 50 
59 99 94 96 
39 23 67 55 4 25 
72 75 22 56 74 58 
65 71 9 20 32 70 
92 42 15 87 57 97 
63 64 49 48 
36 47 19 10 
14 44 38 43 13 
5 61 85 37 93 
28 29 78 34 35 77 
95 98 16 86 91 100 
45 83 84 60 89 
52 18 6 
12 76 79 68 
31 88 7 
